(set-info :smt-lib-version 2.6)
(set-logic UF)
(set-info :source |Benchmarks from the paper: "Extending Sledgehammer with SMT Solvers" by Jasmin Blanchette, Sascha Bohme, and Lawrence C. Paulson, CADE 2011.  Translated to SMT2 by Andrew Reynolds and Morgan Deters.|)
(set-info :category "industrial")
(set-info :status unknown)
(declare-sort S1 0)
(declare-sort S2 0)
(declare-sort S3 0)
(declare-sort S4 0)
(declare-sort S5 0)
(declare-sort S6 0)
(declare-sort S7 0)
(declare-sort S8 0)
(declare-sort S9 0)
(declare-sort S10 0)
(declare-sort S11 0)
(declare-sort S12 0)
(declare-sort S13 0)
(declare-sort S14 0)
(declare-sort S15 0)
(declare-sort S16 0)
(declare-sort S17 0)
(declare-sort S18 0)
(declare-sort S19 0)
(declare-sort S20 0)
(declare-sort S21 0)
(declare-sort S22 0)
(declare-sort S23 0)
(declare-sort S24 0)
(declare-sort S25 0)
(declare-sort S26 0)
(declare-sort S27 0)
(declare-fun f1 () S1)
(declare-fun f2 () S1)
(declare-fun f3 () S2)
(declare-fun f4 () S2)
(declare-fun f5 (S3 S3) S1)
(declare-fun f6 () S3)
(declare-fun f7 (S4 S3) S3)
(declare-fun f8 (S5 S3) S4)
(declare-fun f9 () S5)
(declare-fun f10 () S3)
(declare-fun f11 () S3)
(declare-fun f12 () S4)
(declare-fun f13 (S7 S6) S3)
(declare-fun f14 () S7)
(declare-fun f15 (S8 S6) S6)
(declare-fun f16 (S9 S2) S8)
(declare-fun f17 () S9)
(declare-fun f18 () S2)
(declare-fun f19 () S6)
(declare-fun f20 (S10 S2) S2)
(declare-fun f21 (S11 S2) S10)
(declare-fun f22 () S11)
(declare-fun f23 (S12 S3) S2)
(declare-fun f24 (S13 S2) S12)
(declare-fun f25 () S13)
(declare-fun f26 () S11)
(declare-fun f27 (S14 S6) S10)
(declare-fun f28 () S14)
(declare-fun f29 () S6)
(declare-fun f30 (S10) S1)
(declare-fun f31 () S6)
(declare-fun f32 (S15 S15) S1)
(declare-fun f33 () S15)
(declare-fun f34 (S16 S3) S15)
(declare-fun f35 (S17 S15) S16)
(declare-fun f36 () S17)
(declare-fun f37 () S5)
(declare-fun f38 () S15)
(declare-fun f39 (S18 S15) S15)
(declare-fun f40 (S19 S15) S18)
(declare-fun f41 () S19)
(declare-fun f42 () S5)
(declare-fun f43 (S21 S20) S4)
(declare-fun f44 () S21)
(declare-fun f45 (S22 S20) S20)
(declare-fun f46 (S23 S3) S22)
(declare-fun f47 () S23)
(declare-fun f48 (S25 S24) S18)
(declare-fun f49 () S25)
(declare-fun f50 (S26 S24) S24)
(declare-fun f51 (S27 S15) S26)
(declare-fun f52 () S27)
(declare-fun f53 () S19)
(declare-fun f54 () S24)
(assert (not (= f1 f2)))
(assert (not (and (not (= f3 f4)) (and (= (f5 f6 (f7 (f8 f9 f10) f11)) f1) (exists ((?v0 S6)) (and (= (f7 f12 (f7 (f8 f9 (f13 f14 ?v0)) (f7 (f8 f9 f10) f11))) (f13 f14 (f15 (f16 f17 f18) f19))) (forall ((?v1 S2)) (let ((?v_0 (f21 f22 ?v1)) (?v_1 (f24 f25 ?v1)) (?v_2 (f21 f26 f3))) (= (f20 ?v_0 (f20 (f21 f22 (f23 ?v_1 f10)) (f20 ?v_2 (f20 ?v_0 (f20 (f27 f28 f29) ?v1))))) (f20 (f21 f22 (f23 ?v_1 (f7 (f8 f9 f10) f11))) (f20 ?v_2 (f20 ?v_0 (f20 (f27 f28 ?v0) ?v1)))))))))))))
(assert (not (= f3 f4)))
(assert (= (f7 f12 (f7 (f8 f9 (f13 f14 f29)) f10)) (f13 f14 f19)))
(assert (forall ((?v0 S2)) (= (f20 (f27 f28 f19) ?v0) (f20 (f21 f22 (f23 (f24 f25 ?v0) f10)) (f20 (f21 f26 f3) (f20 (f21 f22 ?v0) (f20 (f27 f28 f29) ?v0)))))))
(assert (not (= (f30 (f27 f28 f31)) f1)))
(assert (not (forall ((?v0 S2)) (=> (not (= ?v0 f4)) (= (f20 (f27 f28 f19) ?v0) f4)))))
(assert (=> (forall ((?v0 S2)) (=> (not (= ?v0 f4)) (= (f20 (f27 f28 f19) ?v0) f4))) false))
(assert (exists ((?v0 S3) (?v1 S2) (?v2 S6)) (and (not (= ?v1 f4)) (and (= (f7 f12 (f7 (f8 f9 (f13 f14 ?v2)) ?v0)) (f13 f14 f19)) (forall ((?v3 S2)) (= (f20 (f27 f28 f19) ?v3) (f20 (f21 f22 (f23 (f24 f25 ?v3) ?v0)) (f20 (f27 f28 (f15 (f16 f17 ?v1) ?v2)) ?v3))))))))
(assert (forall ((?v0 S3)) (= (f5 f6 (f7 f12 ?v0)) f1)))
(assert (forall ((?v0 S3)) (= (f5 ?v0 (f7 f12 ?v0)) f1)))
(assert (forall ((?v0 S3) (?v1 S3)) (=> (= (f5 ?v0 ?v1) f1) (= (f5 (f7 f12 ?v0) (f7 f12 ?v1)) f1))))
(assert (forall ((?v0 S3)) (=> (= (f5 ?v0 f6) f1) false)))
(assert (forall ((?v0 S15) (?v1 S3)) (=> (= (f32 f33 ?v0) f1) (=> (= (f5 f6 ?v1) f1) (= (f32 f33 (f34 (f35 f36 ?v0) ?v1)) f1)))))
(assert (forall ((?v0 S3) (?v1 S3)) (=> (= (f5 f11 ?v0) f1) (=> (= (f5 f6 ?v1) f1) (= (f5 f11 (f7 (f8 f37 ?v0) ?v1)) f1)))))
(assert (forall ((?v0 S3) (?v1 S3) (?v2 S15)) (let ((?v_0 (f35 f36 ?v2))) (=> (= (f5 ?v0 ?v1) f1) (=> (= (f32 f38 ?v2) f1) (=> (= (f32 ?v2 f33) f1) (= (f32 (f34 ?v_0 ?v1) (f34 ?v_0 ?v0)) f1)))))))
(assert (forall ((?v0 S3) (?v1 S3) (?v2 S3)) (let ((?v_0 (f8 f37 ?v2))) (=> (= (f5 ?v0 ?v1) f1) (=> (= (f5 f6 ?v2) f1) (=> (= (f5 ?v2 f11) f1) (= (f5 (f7 ?v_0 ?v1) (f7 ?v_0 ?v0)) f1)))))))
(assert (forall ((?v0 S15) (?v1 S3)) (=> (= (f32 f38 ?v0) f1) (=> (= (f32 ?v0 f33) f1) (= (f32 (f34 (f35 f36 ?v0) (f7 f12 ?v1)) f33) f1)))))
(assert (forall ((?v0 S3) (?v1 S3)) (=> (= (f5 f6 ?v0) f1) (=> (= (f5 ?v0 f11) f1) (= (f5 (f7 (f8 f37 ?v0) (f7 f12 ?v1)) f11) f1)))))
(assert (forall ((?v0 S15) (?v1 S3)) (let ((?v_0 (f34 (f35 f36 ?v0) ?v1))) (=> (= (f32 f38 ?v0) f1) (=> (= (f32 ?v0 f33) f1) (= (f32 (f39 (f40 f41 ?v0) ?v_0) ?v_0) f1))))))
(assert (forall ((?v0 S3) (?v1 S3)) (let ((?v_0 (f7 (f8 f37 ?v0) ?v1))) (=> (= (f5 f6 ?v0) f1) (=> (= (f5 ?v0 f11) f1) (= (f5 (f7 (f8 f42 ?v0) ?v_0) ?v_0) f1))))))
(assert (forall ((?v0 S2) (?v1 S6) (?v2 S2)) (= (f20 (f27 f28 (f15 (f16 f17 ?v0) ?v1)) ?v2) (f20 (f21 f26 ?v0) (f20 (f21 f22 ?v2) (f20 (f27 f28 ?v1) ?v2))))))
(assert (forall ((?v0 S3) (?v1 S20) (?v2 S3)) (= (f7 (f43 f44 (f45 (f46 f47 ?v0) ?v1)) ?v2) (f7 (f8 f9 ?v0) (f7 (f8 f42 ?v2) (f7 (f43 f44 ?v1) ?v2))))))
(assert (forall ((?v0 S15) (?v1 S24) (?v2 S15)) (= (f39 (f48 f49 (f50 (f51 f52 ?v0) ?v1)) ?v2) (f39 (f40 f53 ?v0) (f39 (f40 f41 ?v2) (f39 (f48 f49 ?v1) ?v2))))))
(assert (forall ((?v0 S15) (?v1 S3) (?v2 S3)) (let ((?v_0 (f35 f36 ?v0))) (=> (= (f32 f33 ?v0) f1) (= (= (f32 (f34 ?v_0 ?v1) (f34 ?v_0 ?v2)) f1) (= (f5 ?v1 ?v2) f1))))))
(assert (forall ((?v0 S3) (?v1 S3) (?v2 S3)) (let ((?v_0 (f8 f37 ?v0))) (=> (= (f5 f11 ?v0) f1) (= (= (f5 (f7 ?v_0 ?v1) (f7 ?v_0 ?v2)) f1) (= (f5 ?v1 ?v2) f1))))))
(assert (forall ((?v0 S15) (?v1 S3) (?v2 S3)) (let ((?v_0 (f35 f36 ?v0))) (=> (= (f32 f33 ?v0) f1) (=> (= (f32 (f34 ?v_0 ?v1) (f34 ?v_0 ?v2)) f1) (= (f5 ?v1 ?v2) f1))))))
(assert (forall ((?v0 S3) (?v1 S3) (?v2 S3)) (let ((?v_0 (f8 f37 ?v0))) (=> (= (f5 f11 ?v0) f1) (=> (= (f5 (f7 ?v_0 ?v1) (f7 ?v_0 ?v2)) f1) (= (f5 ?v1 ?v2) f1))))))
(assert (forall ((?v0 S3) (?v1 S3) (?v2 S3)) (= (= (f7 (f8 f42 ?v0) ?v1) (f7 (f8 f42 ?v2) ?v1)) (or (= ?v0 ?v2) (= ?v1 f6)))))
(assert (forall ((?v0 S3) (?v1 S3) (?v2 S3)) (let ((?v_0 (f8 f42 ?v0))) (= (= (f7 ?v_0 ?v1) (f7 ?v_0 ?v2)) (or (= ?v1 ?v2) (= ?v0 f6))))))
(assert (forall ((?v0 S3) (?v1 S3)) (= (= (f7 (f8 f42 ?v0) ?v1) f6) (or (= ?v0 f6) (= ?v1 f6)))))
(assert (forall ((?v0 S3)) (= (f7 (f8 f42 ?v0) f6) f6)))
(assert (forall ((?v0 S3)) (= (f7 (f8 f42 f6) ?v0) f6)))
(assert (forall ((?v0 S3) (?v1 S3) (?v2 S3)) (let ((?v_0 (f8 f37 ?v0))) (= (f7 ?v_0 (f7 (f8 f42 ?v1) ?v2)) (f7 (f8 f37 (f7 ?v_0 ?v1)) ?v2)))))
(assert (forall ((?v0 S2) (?v1 S3) (?v2 S3)) (let ((?v_0 (f24 f25 ?v0))) (= (f23 ?v_0 (f7 (f8 f42 ?v1) ?v2)) (f23 (f24 f25 (f23 ?v_0 ?v1)) ?v2)))))
(assert (forall ((?v0 S15) (?v1 S3) (?v2 S3)) (let ((?v_0 (f35 f36 ?v0))) (= (f34 ?v_0 (f7 (f8 f42 ?v1) ?v2)) (f34 (f35 f36 (f34 ?v_0 ?v1)) ?v2)))))
(assert (forall ((?v0 S3) (?v1 S3) (?v2 S3)) (let ((?v_0 (f8 f42 (f7 f12 ?v0)))) (= (= (f7 ?v_0 ?v1) (f7 ?v_0 ?v2)) (= ?v1 ?v2)))))
(assert (forall ((?v0 S3) (?v1 S3) (?v2 S3)) (= (f7 (f8 f42 (f7 (f8 f9 ?v0) ?v1)) ?v2) (f7 (f8 f9 (f7 (f8 f42 ?v0) ?v2)) (f7 (f8 f42 ?v1) ?v2)))))
(assert (forall ((?v0 S3) (?v1 S3) (?v2 S3)) (let ((?v_0 (f8 f42 ?v0))) (= (f7 ?v_0 (f7 (f8 f9 ?v1) ?v2)) (f7 (f8 f9 (f7 ?v_0 ?v1)) (f7 ?v_0 ?v2))))))
(assert (forall ((?v0 S3) (?v1 S3)) (= (= (f7 (f8 f42 ?v0) ?v1) f11) (and (= ?v0 f11) (= ?v1 f11)))))
(assert (forall ((?v0 S3)) (= (f7 (f8 f42 ?v0) f11) ?v0)))
(assert (forall ((?v0 S3) (?v1 S3)) (= (= f11 (f7 (f8 f42 ?v0) ?v1)) (and (= ?v0 f11) (= ?v1 f11)))))
(assert (forall ((?v0 S3)) (= (f7 (f8 f42 f11) ?v0) ?v0)))
(assert (forall ((?v0 S24)) (= (= (f48 f49 ?v0) (f48 f49 f54)) (= ?v0 f54))))
(assert (forall ((?v0 S10)) (= (= (f30 ?v0) f1) (forall ((?v1 S2) (?v2 S2)) (= (f20 ?v0 ?v1) (f20 ?v0 ?v2))))))
(assert (forall ((?v0 S3) (?v1 S3)) (let ((?v_0 (f7 f12 f6))) (= (= (f7 (f8 f37 ?v0) ?v1) ?v_0) (or (= ?v1 f6) (= ?v0 ?v_0))))))
(assert (forall ((?v0 S3)) (let ((?v_0 (f7 f12 f6))) (= (f7 (f8 f37 ?v_0) ?v0) ?v_0))))
(check-sat)
(exit)
